-99 -99 000 000 -99 000 000 000 -99 000 000 000 000 000 000 -99 000 000 -99 -99 -99 000 000 -99 000 000 -99 000 000 -99 000
-99 -99 000 000 000 000 000 000 -99 000 000 000 000 000 000 000 -99 000 -99 -99 000 000 000 000 000 000 -99 000 000 -99 000
000 000 000 000 000 000 000 000 000 -99 -99 000 -99 -99 000 000 000 001 000 000 000 000 000 000 000 000 000 000 000 -99 -99
000 000 000 000 000 000 000 000 000 000 -99 -99 000 -99 000 000 000 003 003 000 000 000 000 000 000 000 000 -99 000 -99 -99
000 000 000 000 000 000 000 000 000 000 -99 -99 000 -99 -99 000 000 001 007 001 000 000 000 000 000 000 -99 -99 -99 -99 -99
000 000 000 000 000 000 001 000 000 -99 -99 -99 000 -99 -99 000 000 000 003 002 000 000 000 000 000 000 -99 -99 -99 -99 -99
000 000 000 000 000 000 000 000 000 000 -99 -99 -99 000 -99 000 000 000 001 001 000 000 000 000 000 000 -99 -99 -99 -99 -99
000 000 000 000 000 000 000 000 000 000 -99 -99 -99 -99 -99 000 000 000 000 001 -99 000 000 000 000 -99 -99 -99 -99 -99 -99
000 000 000 000 000 000 000 000 000 000 -99 -99 -99 -99 -99 -99 000 000 -99 -99 000 000 000 000 000 -99 -99 -99 -99 -99 -99
000 000 000 000 000 000 000 000 000 000 -99 -99 -99 -99 -99 -99 000 000 000 -99 000 000 000 -99 000 000 000 000 000 000 -99
000 000 000 000 000 000 000 000 000 000 000 000 -99 -99 -99 -99 000 000 000 000 000 000 000 000 000 000 000 000 000 000 000
000 000 000 000 -99 -99 000 000 000 000 000 000 -99 -99 -99 000 000 000 000 000 000 000 000 000 000 000 000 000 000 000 000
000 000 000 000 000 000 000 000 -99 000 000 000 000 -99 -99 000 000 000 000 000 -99 000 -99 -99 000 000 000 000 000 000 000
000 000 000 000 000 000 000 000 -99 -99 000 000 -99 -99 -99 -99 -99 000 -99 -99 -99 000 000 000 000 000 000 000 000 000 000
000 000 000 000 000 000 000 000 -99 -99 -99 -99 -99 000 -99 -99 -99 -99 -99 -99 -99 000 000 000 000 000 000 000 000 000 000
000 -99 000 000 000 000 -99 000 000 -99 -99 -99 -99 000 -99 -99 -99 -99 -99 -99 -99 -99 000 000 000 000 -99 -99 000 000 002
000 -99 000 000 000 000 000 000 000 -99 -99 -99 -99 000 000 -99 000 -99 -99 -99 -99 -99 000 000 000 000 -99 -99 000 000 000
000 000 000 000 000 000 000 -99 000 -99 -99 000 000 000 000 000 000 -99 000 -99 -99 -99 000 000 000 000 -99 -99 000 000 000
000 000 000 000 -99 -99 -99 000 000 -99 -99 000 000 000 000 000 000 000 000 -99 -99 -99 000 000 000 -99 000 000 000 000 000
-99 000 -99 -99 -99 -99 -99 000 000 000 -99 000 000 000 000 -99 000 000 000 000 000 -99 -99 000 -99 -99 -99 -99 -99 000 000
000 000 000 000 000 -99 -99 -99 000 001 -99 000 000 000 000 000 000 000 000 000 -99 -99 000 -99 -99 -99 -99 -99 -99 -99 -99
000 000 000 000 000 -99 -99 -99 001 000 -99 -99 000 000 000 000 000 -99 000 000 000 000 000 -99 -99 -99 -99 -99 -99 -99 -99
000 000 000 000 000 000 -99 000 000 000 -99 -99 000 000 000 000 000 -99 000 000 000 000 000 -99 -99 -99 -99 -99 -99 -99 -99
000 000 000 000 000 000 000 000 000 000 -99 -99 -99 000 -99 -99 000 000 -99 000 000 000 000 -99 -99 -99 -99 -99 -99 -99 001
000 000 000 000 000 000 -99 000 000 000 -99 -99 -99 -99 000 000 000 000 -99 000 000 000 000 -99 -99 -99 -99 -99 -99 -99 001
000 000 000 000 000 000 000 000 000 000 -99 -99 -99 -99 000 000 000 000 000 000 000 000 000 -99 -99 -99 -99 -99 -99 004 002
000 -99 000 000 000 000 000 000 000 000 000 -99 -99 000 000 000 000 000 000 000 000 000 000 -99 -99 -99 -99 -99 -99 005 004
000 000 000 000 000 000 000 000 000 000 000 -99 -99 000 000 -99 000 000 000 000 000 000 000 -99 -99 -99 -99 -99 005 005 012
000 000 000 000 000 000 -99 000 000 000 000 -99 000 000 000 -99 000 000 000 000 000 000 -99 -99 -99 -99 -99 -99 004 003 010
000 000 000 000 000 000 -99 000 000 000 000 -99 -99 000 000 -99 000 000 000 000 -99 000 -99 -99 -99 -99 -99 -99 002 002 007
000 000 -99 000 000 000 000 000 000 000 000 -99 -99 000 000 000 -99 000 000 000 -99 -99 -99 000 000 -99 -99 -99 -99 001 001
000 000 -99 000 000 000 000 000 000 000 -99 -99 -99 000 000 -99 000 000 000 -99 -99 -99 000 000 000 -99 -99 -99 -99 -99 000
000 000 000 000 000 000 000 000 000 -99 -99 -99 -99 -99 000 -99 000 000 000 -99 -99 000 000 000 000 -99 -99 -99 000 000 000
000 000 000 000 000 000 000 -99 000 000 -99 -99 -99 -99 -99 000 000 000 000 -99 -99 000 000 -99 000 000 -99 000 000 000 000
000 000 000 000 000 000 000 000 000 000 000 -99 000 -99 000 000 000 000 -99 -99 000 -99 000 000 000 000 000 000 000 000 000
000 000 -99 000 000 000 000 000 000 000 000 000 000 000 000 000 000 000 -99 000 000 000 -99 000 000 000 000 000 000 000 -99
000 000 -99 000 000 -99 000 000 000 000 000 000 000 000 000 000 000 000 000 000 000 000 000 000 000 000 000 000 -99 000 -99
000 000 -99 -99 000 -99 000 000 000 000 -99 000 000 000 000 000 000 000 000 000 000 000 000 000 000 000 -99 -99 -99 000 -99
000 000 -99 -99 000 000 -99 -99 -99 -99 -99 -99 000 000 000 000 000 000 000 000 000 000 000 000 000 000 -99 -99 -99 -99 -99
000 000 000 000 000 -99 -99 -99 -99 -99 000 000 000 000 000 000 000 000 -99 -99 -99 -99 000 000 -99 000 -99 -99 -99 -99 -99
000 000 000 000 000 -99 -99 -99 -99 -99 000 000 000 000 -99 000 -99 -99 -99 -99 -99 -99 000 000 -99 000 -99 -99 -99 -99 -99
000 000 -99 000 -99 -99 -99 -99 -99 000 000 000 000 000 -99 -99 -99 000 000 -99 -99 -99 000 000 000 -99 -99 -99 -99 -99 -99
000 000 -99 -99 -99 -99 -99 000 000 000 000 000 000 000 000 000 000 000 000 -99 -99 -99 -99 000 000 -99 -99 -99 -99 -99 -99
000 -99 -99 -99 -99 -99 -99 -99 000 -99 -99 000 000 000 000 000 000 000 000 -99 -99 -99 -99 -99 000 -99 -99 -99 -99 -99 -99
000 -99 -99 -99 -99 -99 -99 -99 -99 -99 -99 000 000 000 000 000 000 000 000 -99 -99 -99 -99 -99 000 -99 -99 -99 -99 -99 -99
000 -99 -99 -99 -99 -99 -99 -99 -99 -99 -99 000 000 -99 000 000 000 000 000 000 -99 -99 -99 000 000 000 000 000 -99 -99 -99
000 -99 -99 -99 -99 -99 -99 -99 -99 -99 -99 000 000 -99 000 -99 -99 -99 000 000 -99 -99 000 000 000 000 000 -99 -99 -99 -99
-99 -99 -99 -99 -99 -99 -99 -99 -99 -99 -99 000 -99 -99 -99 -99 -99 000 000 -99 -99 -99 000 000 -99 -99 -99 -99 -99 -99 -99
-99 -99 -99 -99 -99 -99 -99 -99 -99 -99 -99 -99 -99 -99 -99 -99 -99 -99 000 -99 -99 -99 000 -99 -99 -99 -99 -99 -99 -99 -99
-99 -99 -99 -99 -99 -99 -99 -99 -99 -99 -99 -99 -99 -99 -99 -99 -99 -99 -99 -99 -99 -99 -99 -99 -99 -99 -99 -99 -99 -99 -99
-99 -99 -99 -99 -99 -99 -99 -99 -99 -99 -99 -99 -99 -99 -99 -99 -99 -99 -99 -99 -99 -99 -99 -99 -99 -99 -99 -99 -99 -99 -99
-99 -99 -99 -99 -99 -99 -99 -99 -99 -99 -99 -99 -99 -99 -99 -99 -99 -99 000 -99 -99 -99 -99 -99 -99 -99 -99 -99 -99 -99 -99
-99 -99 -99 -99 -99 -99 -99 -99 -99 -99 -99 -99 -99 -99 -99 -99 -99 -99 -99 -99 -99 -99 -99 -99 -99 -99 -99 -99 -99 -99 -99
-99 -99 -99 -99 -99 -99 -99 -99 -99 -99 -99 -99 -99 -99 -99 -99 -99 -99 -99 -99 -99 -99 -99 -99 -99 -99 -99 -99 -99 -99 -99
-99 -99 -99 -99 -99 -99 -99 -99 -99 -99 -99 -99 -99 -99 -99 -99 -99 -99 -99 -99 -99 -99 -99 -99 -99 -99 -99 -99 -99 -99 -99
